10J3M/DAT/10J3MUNA-16.dat
10 3
0.9826 0.9655
32.3908 1049.1639
27.172 738.3176
49.2229 2422.8939
19.7915 391.7035
0.9668 0.9347
3.2832 10.7794
38.9926 1520.4229
30.5555 933.6386
29.3605 862.039
7930.859