10J3M/SOL/10J3MUNA-16.sol
solution status: optimal solution found
objective value:                              78.1574
x#1#1                                               1 	(obj:0)
x#2#2                               0.419762101579631 	(obj:0)
x#2#3                               0.580237898420369 	(obj:0)
x#3#2                                               1 	(obj:0)
x#4#1                                               1 	(obj:0)
x#5#1                                               1 	(obj:0)
x#6#2                                               1 	(obj:0)
x#7#2                                               1 	(obj:0)
x#8#3                                               1 	(obj:0)
x#9#1                                               1 	(obj:0)
x#10#1                              0.728794279597746 	(obj:0)
x#10#2                              0.271205720402254 	(obj:0)
z                                             78.1574 	(obj:1)
